src/LKH/IO/anjos-75-01.tour
NAME : anjos-75-01.-214.tour
COMMENT : Length = -214
COMMENT : Found by LKH [Keld Helsgaun] Sun Apr 13 17:05:01 2025
TYPE : TOUR
DIMENSION : 75
TOUR_SECTION
1
54
46
28
2
60
64
73
36
20
61
15
68
30
49
23
50
33
38
67
10
75
56
41
27
24
62
22
8
66
17
37
31
52
47
42
18
53
51
45
63
16
13
71
12
3
19
34
55
7
26
43
39
14
59
32
74
35
21
11
25
72
57
48
58
4
65
40
69
29
9
5
6
44
70
-1
EOF
